letting n_nurses=25
letting n_days=7
letting n_shift_types=4
letting max_covers=18
letting t_covers=87
letting covers=[3,14,0,0,3,17,0,0,1,8,0,0,18,3,0,0,17,3,0,0,0,0,0,0,0,0,0,0]
letting prefes=[1,2,1,4,2,1,1,4,1,1,1,1,1,1,2,3,1,2,2,3,1,1,1,3,1,2,2,3,3,2,1,4,2,1,1,4,3,1,2,4,1,2,1,3,2,2,1,3,3,2,4,3,3,2,1,4,3,2,1,4,2,4,1,3,3,1,2,4,3,2,1,4,2,1,1,4,1,2,4,3,3,1,2,4,1,1,1,4,2,4,1,3,1,1,2,1,4,2,1,3,2,2,1,3,1,2,1,3,1,2,2,3,3,2,1,4,2,1,1,3,3,3,2,4,1,1,2,3,1,2,2,3,1,2,4,3,1,2,2,3,3,1,1,4,2,1,1,3,3,1,2,4,1,2,1,3,2,1,1,3,1,2,4,3,1,2,2,3,1,2,1,4,2,1,1,3,3,1,2,4,1,2,1,3,2,1,1,3,1,2,4,3,1,2,2,3,3,2,1,4,2,1,1,3,1,1,1,4,1,1,2,3,1,2,2,3,1,1,4,1,1,2,1,3,3,2,1,1,2,1,4,3,3,3,2,4,1,2,1,3,2,2,1,3,3,2,4,3,1,1,2,3,1,1,1,4,1,1,2,3,3,1,2,4,4,2,1,3,2,2,1,3,1,2,4,3,1,2,2,3,3,1,1,1,2,1,4,3,3,1,2,4,1,2,1,3,2,2,1,3,3,2,4,3,1,2,2,3,3,2,1,4,2,1,1,4,3,3,2,4,1,2,1,3,2,2,1,3,1,2,4,3,1,2,2,3,3,2,2,4,2,1,1,4,3,3,1,4,1,2,1,3,2,2,1,3,1,2,4,3,1,2,2,3,3,2,3,4,1,1,2,4,1,1,2,4,1,2,2,4,1,2,2,4,3,2,4,3,3,1,2,4,3,2,1,1,2,1,1,3,3,1,2,4,1,2,1,3,2,2,1,3,1,2,4,1,1,2,2,3,3,2,1,4,2,1,1,3,3,1,2,4,2,1,1,3,2,2,1,3,1,2,4,3,1,2,2,3,3,2,2,4,1,4,1,3,1,1,2,4,1,2,1,3,2,2,1,3,1,1,4,3,1,2,1,3,3,2,2,4,1,1,4,3,3,1,2,4,2,1,1,3,2,2,1,3,1,2,4,3,1,2,2,3,3,2,1,4,2,1,1,3,3,1,2,1,1,2,1,3,2,1,1,3,1,1,1,3,1,2,1,3,3,2,1,4,2,1,1,3,3,1,2,1,1,2,1,3,2,1,1,3,1,2,1,1,1,2,2,3,1,2,1,4,1,1,1,3,3,3,2,4,1,2,1,3,2,2,1,3,1,2,4,3,1,1,2,3,3,1,2,4,2,1,1,3,3,1,1,1,1,2,1,3,2,2,1,3,3,2,1,3,1,2,2,3,3,2,1,1,2,1,1,3,3,1,2,4,1,2,1,4,2,2,1,4,1,1,4,3,3,2,1,4,3,2,1,1,2,4,1,3,3,1,2,4,1,2,1,4,2,2,1,4,1,2,4,1,1,2,2,3,3,2,1,4,2,4,1,3,3,1,1,4,1,2,2,4,1,2,2,4,1,2,4,1,3,1,2,4]
letting ub =  282
